(set-info :source |printed by MathSAT|)
(declare-fun stop () Bool)
(declare-fun call_voiture.ite3 () Int)
(declare-fun speed () Int)
(declare-fun call_voiture.meter () Bool)
(declare-fun call_voiture.flby6 () Int)
(declare-fun call_voiture.time () Int)
(declare-fun call_voiture.flby5 () Int)
(declare-fun meter () Bool)
(declare-fun _OK_ () Bool)
(declare-fun call_voiture.flby4 () Int)
(declare-fun call_Sofar.flby () Bool)
(declare-fun flby () Bool)
(declare-fun env () Bool)
(declare-fun call_voiture.toofast () Bool)
(declare-fun call_voiture.flby2 () Bool)
(declare-fun call_voiture.speed () Int)
(declare-fun call_voiture.second () Bool)
(declare-fun second () Bool)
(declare-fun move () Bool)
(declare-fun bump () Bool)
(declare-fun call_voiture.flby3 () Bool)
(declare-fun time () Int)
(declare-fun call_voiture.stop () Bool)
(declare-fun toofast () Bool)
(declare-fun call_voiture.move () Bool)
(declare-fun call_voiture.flby () Bool)
(declare-fun call_Sofar.Sofar () Bool)
(declare-fun dist () Int)
(declare-fun param_s () Bool)
(declare-fun call_voiture.dist () Int)
(declare-fun param_m () Bool)
(declare-fun call_voiture.bump () Bool)
(declare-fun call_excludes2.excludes () Bool)
(declare-fun call_voiture.ite2 () Int)
(define-fun .def_363 () Bool (= call_Sofar.flby call_Sofar.Sofar))
(define-fun .def_359 () Bool (and param_s param_m))
(define-fun .def_360 () Bool (not .def_359))
(define-fun .def_361 () Bool (= call_excludes2.excludes .def_360))
(define-fun .def_355 () Bool (= call_voiture.flby call_voiture.meter))
(define-fun .def_353 () Bool (= call_voiture.flby2 call_voiture.second))
(define-fun .def_350 () Bool (= call_voiture.flby3 call_voiture.move))
(define-fun .def_347 () Bool (= call_voiture.ite3 0))
(define-fun .def_343 () Bool (not call_voiture.move))
(define-fun .def_344 () Bool (or call_voiture.second .def_343))
(define-fun .def_346 () Bool (not .def_344))
(define-fun .def_348 () Bool (or .def_346 .def_347))
(define-fun .def_342 () Bool (= call_voiture.ite2 call_voiture.ite3))
(define-fun .def_345 () Bool (or .def_342 .def_344))
(define-fun .def_349 () Bool (and .def_345 .def_348))
(define-fun .def_351 () Bool (and .def_349 .def_350))
(define-fun .def_338 () Bool (= call_voiture.flby6 call_voiture.time))
(define-fun .def_336 () Bool (= call_voiture.flby5 call_voiture.speed))
(define-fun .def_334 () Bool (= call_voiture.flby4 call_voiture.dist))
(define-fun .def_331 () Bool (= call_voiture.dist 10))
(define-fun .def_332 () Bool (= call_voiture.bump .def_331))
(define-fun .def_328 () Bool (<= 4 call_voiture.time))
(define-fun .def_329 () Bool (= call_voiture.stop .def_328))
(define-fun .def_325 () Bool (<= 3 call_voiture.speed))
(define-fun .def_326 () Bool (= call_voiture.toofast .def_325))
(define-fun .def_323 () Bool (= env call_Sofar.Sofar))
(define-fun .def_319 () Bool (= meter call_voiture.meter))
(define-fun .def_315 () Bool (= second call_voiture.second))
(define-fun .def_311 () Bool (= move call_voiture.move))
(define-fun .def_307 () Bool (= time call_voiture.time))
(define-fun .def_303 () Bool (= speed call_voiture.speed))
(define-fun .def_299 () Bool (= dist call_voiture.dist))
(define-fun .def_295 () Bool (= bump call_voiture.bump))
(define-fun .def_291 () Bool (= stop call_voiture.stop))
(define-fun .def_287 () Bool (= toofast call_voiture.toofast))
(define-fun .def_284 () Bool (= flby _OK_))
(define-fun .def_288 () Bool (and .def_284 .def_287))
(define-fun .def_292 () Bool (and .def_288 .def_291))
(define-fun .def_296 () Bool (and .def_292 .def_295))
(define-fun .def_300 () Bool (and .def_296 .def_299))
(define-fun .def_304 () Bool (and .def_300 .def_303))
(define-fun .def_308 () Bool (and .def_304 .def_307))
(define-fun .def_312 () Bool (and .def_308 .def_311))
(define-fun .def_316 () Bool (and .def_312 .def_315))
(define-fun .def_320 () Bool (and .def_316 .def_319))
(define-fun .def_324 () Bool (and .def_320 .def_323))
(define-fun .def_327 () Bool (and .def_324 .def_326))
(define-fun .def_330 () Bool (and .def_327 .def_329))
(define-fun .def_333 () Bool (and .def_330 .def_332))
(define-fun .def_335 () Bool (and .def_333 .def_334))
(define-fun .def_337 () Bool (and .def_335 .def_336))
(define-fun .def_339 () Bool (and .def_337 .def_338))
(define-fun .def_352 () Bool (and .def_339 .def_351))
(define-fun .def_354 () Bool (and .def_352 .def_353))
(define-fun .def_356 () Bool (and .def_354 .def_355))
(define-fun .def_362 () Bool (and .def_356 .def_361))
(define-fun .def_364 () Bool (and .def_362 .def_363))
(define-fun .def_281 () Bool (= call_excludes2.excludes call_Sofar.flby))
(define-fun .def_277 () Bool (= call_voiture.flby6 0))
(define-fun .def_274 () Bool (= call_voiture.flby5 0))
(define-fun .def_271 () Bool (= call_voiture.flby4 0))
(define-fun .def_266 () Bool (not call_voiture.flby2))
(define-fun .def_262 () Bool (not call_voiture.flby))
(define-fun .def_264 () Bool (and .def_262 flby))
(define-fun .def_267 () Bool (and .def_264 .def_266))
(define-fun .def_269 () Bool (and .def_267 call_voiture.flby3))
(define-fun .def_272 () Bool (and .def_269 .def_271))
(define-fun .def_275 () Bool (and .def_272 .def_274))
(define-fun .def_278 () Bool (and .def_275 .def_277))
(define-fun .def_282 () Bool (and .def_278 .def_281))
(define-fun .def_365 () Bool (and .def_282 .def_364))
(assert .def_365)
